250 250 20
167 184 1
114 118 4
167 152 1
83 140 3
70 86 6
143 166 1
120 160 2
66 148 3
87 141 2
69 165 3
184 167 1
118 114 4
152 167 1
140 83 3
86 70 6
166 143 1
160 120 2
148 66 3
141 87 2
165 69 3
